Version identifier: 22.1.1.0 | 2022-11-28 | 9160aff4d
CPXPARAM_ClockType                               1
CPXPARAM_Read_DataCheck                          1
CPXPARAM_Threads                                 1
CPXPARAM_Simplex_Tolerances_Optimality           1.0000000000000001e-09
CPXPARAM_TimeLimit                               7200
CPXPARAM_MIP_Tolerances_AbsMIPGap                0
CPXPARAM_MIP_Tolerances_MIPGap                   0
CPXPARAM_MIP_Tolerances_Integrality              0
Found incumbent of value 0.000000 after 0.00 sec. (0.91 ticks)
Tried aggregator 1 time.
MIQP Presolve eliminated 1747 rows and 9 columns.
MIQP Presolve modified 968 coefficients.
Reduced MIQP has 7894 rows, 2991 columns, and 25266 nonzeros.
Reduced MIQP has 2841 binaries, 150 generals, 0 SOSs, and 0 indicators.
Reduced MIQP objective Q matrix has 150 nonzeros.
Presolve time = 0.03 sec. (17.68 ticks)
Probing time = 0.01 sec. (2.56 ticks)
Tried aggregator 1 time.
MIQP Presolve eliminated 500 rows and 0 columns.
Reduced MIQP has 7394 rows, 2991 columns, and 23766 nonzeros.
Reduced MIQP has 2841 binaries, 150 generals, 0 SOSs, and 0 indicators.
Reduced MIQP objective Q matrix has 150 nonzeros.
Presolve time = 0.03 sec. (15.30 ticks)
Classifier predicts products in MIQP should be linearized.
Probing time = 0.01 sec. (2.45 ticks)
Clique table members: 3906.
MIP emphasis: balance optimality and feasibility.
MIP search method: dynamic search.
Parallel mode: none, using 1 thread.
Root relaxation solution time = 2.25 sec. (3034.22 ticks)

        Nodes                                         Cuts/
   Node  Left     Objective  IInf  Best Integer    Best Bound    ItCnt     Gap

*     0+    0                            0.0000    15000.0000              --- 
      0     0     3333.3333  1681        0.0000     3333.3333        6     --- 
      0     0     3333.3333  2574        0.0000     Cuts: 674   166461     --- 
      0     0     3333.3333  2575        0.0000    Cuts: 1948   248793     --- 
Heuristic still looking.
Heuristic still looking.
Heuristic still looking.
*     0+    0                           36.0000     3333.3333              --- 
*     0+    0                          148.0000     3333.3333              --- 
*     0+    0                          288.0000     3333.3333              --- 
*     0+    0                          296.0000     3333.3333              --- 
*     0+    0                          432.0000     3333.3333           671.60%
*     0+    0                          438.0000     3333.3333           661.04%
*     0+    0                          440.0000     3333.3333           657.58%
*     0+    0                          442.0000     3333.3333           654.15%
*     0+    0                          444.0000     3333.3333           650.75%
      0     0        cutoff            444.0000     3333.3333   248793  650.75%
      0     2     3333.3333  2568      444.0000     3333.3333   248793  650.75%
Elapsed time = 660.90 sec. (295310.66 ticks, tree = 0.01 MB, solutions = 10)
      1     3     3333.3333  2629      444.0000     3333.3333   442393  650.75%
      2     4     3333.3333  2542      444.0000     3333.3333   666193  650.75%
      3     5     3333.3333  2427      444.0000     3333.3333   815966  650.75%
      4     6     3333.3333  2376      444.0000     3333.3333   993536  650.75%
      5     5    infeasible            444.0000     3333.3333  1002908  650.75%
      6     6     3333.3333  2444      444.0000     3333.3333  1009006  650.75%
      7     5    infeasible            444.0000     3333.3333  1019061  650.75%
      8     6     3329.5513  2318      444.0000     3333.3333  1032860  650.75%
      9     5    infeasible            444.0000     3333.3333  1047503  650.75%
     10     6     3399.3333  2388      444.0000     3333.3333  1053464  650.75%
Elapsed time = 1179.90 sec. (514553.16 ticks, tree = 0.02 MB, solutions = 10)
     11     5    infeasible            444.0000     3333.3333  1072848  650.75%
     12     6     2583.1884  2441      444.0000     3333.3333  1086458  650.75%
     13     5    infeasible            444.0000     3333.3333  1102904  650.75%
     14     4    infeasible            444.0000     3333.3333  1111898  650.75%
     15     3    infeasible            444.0000     3333.3333  1118260  650.75%
     16     4     3332.6667  2357      444.0000     3333.3333  1225919  650.75%
     17     3    infeasible            444.0000     3333.3333  1240522  650.75%
     18     4     3332.0000  2402      444.0000     3333.3333  1246741  650.75%
     19     5   1.00000e+37  1984      444.0000     3333.3333  1253655  650.75%
     20     4    infeasible            444.0000     3333.3333  1263499  650.75%
Elapsed time = 1600.00 sec. (711912.33 ticks, tree = 0.01 MB, solutions = 10)
     21     3    infeasible            444.0000     3333.3333  1280090  650.75%
     22     2    infeasible            444.0000     3333.3333  1288111  650.75%
     23     1    infeasible            444.0000     3332.0000  1297760  650.45%
     24     0    infeasible            444.0000      444.0000  1308777    0.00%

Clique cuts applied:  46
Cover cuts applied:  1
Implied bound cuts applied:  5
Zero-half cuts applied:  66
Gomory fractional cuts applied:  3

Root node processing (before b&c):
  Real time             =  660.89 sec. (295306.50 ticks)
Sequential b&c:
  Real time             =  973.06 sec. (437405.25 ticks)
                          ------------
Total (root+branch&cut) = 1633.95 sec. (732711.75 ticks)
Solution is feasible.

---------------------
@@@ MIP_optimal
>>> Benchmark flat50-9.cnf k 10 OPT 444 TimeCost 1640.4954178333282 TimeSolve 1639.8895149230957 TimeRead 0.0016927719116210938 TimeTrans 0.6042101383209229
